13180.0
1 1 1 1 1 1 1 1 1 1 1 1 1 1 1 1 1 1 1 1 
41 43 
4 12 28 
32 
15 34 
11 18 
42 45 
13 24 40 
31 
44 
19 49 
2 3 17 35 47 
36 
1 20 
7 14 30 39 
8 46 
10 16 21 22 
0 26 33 
6 9 25 27 29 
5 
23 37 38 48 
